512
3072
512 64
512 456
512 504
512 505
512 511
512 448
511 63
511 455
511 503
511 512
511 510
511 447
510 62
510 454
510 502
510 511
510 509
510 446
509 61
509 453
509 501
509 510
509 508
509 445
508 60
508 452
508 500
508 509
508 507
508 444
507 59
507 451
507 499
507 508
507 506
507 443
506 58
506 450
506 498
506 507
506 505
506 442
505 57
505 449
505 497
505 512
505 506
505 441
504 56
504 512
504 496
504 497
504 503
504 440
503 55
503 511
503 495
503 504
503 502
503 439
502 54
502 510
502 494
502 503
502 501
502 438
501 53
501 509
501 493
501 502
501 500
501 437
500 52
500 508
500 492
500 501
500 499
500 436
499 51
499 507
499 491
499 500
499 498
499 435
498 50
498 506
498 490
498 499
498 497
498 434
497 49
497 505
497 489
497 504
497 498
497 433
496 48
496 504
496 488
496 489
496 495
496 432
495 47
495 503
495 487
495 496
495 494
495 431
494 46
494 502
494 486
494 495
494 493
494 430
493 45
493 501
493 485
493 494
493 492
493 429
492 44
492 500
492 484
492 493
492 491
492 428
491 43
491 499
491 483
491 492
491 490
491 427
490 42
490 498
490 482
490 491
490 489
490 426
489 41
489 497
489 481
489 496
489 490
489 425
488 40
488 496
488 480
488 481
488 487
488 424
487 39
487 495
487 479
487 488
487 486
487 423
486 38
486 494
486 478
486 487
486 485
486 422
485 37
485 493
485 477
485 486
485 484
485 421
484 36
484 492
484 476
484 485
484 483
484 420
483 35
483 491
483 475
483 484
483 482
483 419
482 34
482 490
482 474
482 483
482 481
482 418
481 33
481 489
481 473
481 488
481 482
481 417
480 32
480 488
480 472
480 473
480 479
480 416
479 31
479 487
479 471
479 480
479 478
479 415
478 30
478 486
478 470
478 479
478 477
478 414
477 29
477 485
477 469
477 478
477 476
477 413
476 28
476 484
476 468
476 477
476 475
476 412
475 27
475 483
475 467
475 476
475 474
475 411
474 26
474 482
474 466
474 475
474 473
474 410
473 25
473 481
473 465
473 480
473 474
473 409
472 24
472 480
472 464
472 465
472 471
472 408
471 23
471 479
471 463
471 472
471 470
471 407
470 22
470 478
470 462
470 471
470 469
470 406
469 21
469 477
469 461
469 470
469 468
469 405
468 20
468 476
468 460
468 469
468 467
468 404
467 19
467 475
467 459
467 468
467 466
467 403
466 18
466 474
466 458
466 467
466 465
466 402
465 17
465 473
465 457
465 472
465 466
465 401
464 16
464 472
464 456
464 457
464 463
464 400
463 15
463 471
463 455
463 464
463 462
463 399
462 14
462 470
462 454
462 463
462 461
462 398
461 13
461 469
461 453
461 462
461 460
461 397
460 12
460 468
460 452
460 461
460 459
460 396
459 11
459 467
459 451
459 460
459 458
459 395
458 10
458 466
458 450
458 459
458 457
458 394
457 9
457 465
457 449
457 464
457 458
457 393
456 8
456 512
456 464
456 449
456 455
456 392
455 7
455 511
455 463
455 456
455 454
455 391
454 6
454 510
454 462
454 455
454 453
454 390
453 5
453 509
453 461
453 454
453 452
453 389
452 4
452 508
452 460
452 453
452 451
452 388
451 3
451 507
451 459
451 452
451 450
451 387
450 2
450 506
450 458
450 451
450 449
450 386
449 1
449 505
449 457
449 456
449 450
449 385
448 512
448 392
448 440
448 441
448 447
448 384
447 511
447 391
447 439
447 448
447 446
447 383
446 510
446 390
446 438
446 447
446 445
446 382
445 509
445 389
445 437
445 446
445 444
445 381
444 508
444 388
444 436
444 445
444 443
444 380
443 507
443 387
443 435
443 444
443 442
443 379
442 506
442 386
442 434
442 443
442 441
442 378
441 505
441 385
441 433
441 448
441 442
441 377
440 504
440 448
440 432
440 433
440 439
440 376
439 503
439 447
439 431
439 440
439 438
439 375
438 502
438 446
438 430
438 439
438 437
438 374
437 501
437 445
437 429
437 438
437 436
437 373
436 500
436 444
436 428
436 437
436 435
436 372
435 499
435 443
435 427
435 436
435 434
435 371
434 498
434 442
434 426
434 435
434 433
434 370
433 497
433 441
433 425
433 440
433 434
433 369
432 496
432 440
432 424
432 425
432 431
432 368
431 495
431 439
431 423
431 432
431 430
431 367
430 494
430 438
430 422
430 431
430 429
430 366
429 493
429 437
429 421
429 430
429 428
429 365
428 492
428 436
428 420
428 429
428 427
428 364
427 491
427 435
427 419
427 428
427 426
427 363
426 490
426 434
426 418
426 427
426 425
426 362
425 489
425 433
425 417
425 432
425 426
425 361
424 488
424 432
424 416
424 417
424 423
424 360
423 487
423 431
423 415
423 424
423 422
423 359
422 486
422 430
422 414
422 423
422 421
422 358
421 485
421 429
421 413
421 422
421 420
421 357
420 484
420 428
420 412
420 421
420 419
420 356
419 483
419 427
419 411
419 420
419 418
419 355
418 482
418 426
418 410
418 419
418 417
418 354
417 481
417 425
417 409
417 424
417 418
417 353
416 480
416 424
416 408
416 409
416 415
416 352
415 479
415 423
415 407
415 416
415 414
415 351
414 478
414 422
414 406
414 415
414 413
414 350
413 477
413 421
413 405
413 414
413 412
413 349
412 476
412 420
412 404
412 413
412 411
412 348
411 475
411 419
411 403
411 412
411 410
411 347
410 474
410 418
410 402
410 411
410 409
410 346
409 473
409 417
409 401
409 416
409 410
409 345
198 262
198 254
198 206
198 199
198 197
198 134
197 261
197 253
197 205
197 198
197 196
197 133
196 260
196 252
196 204
196 197
196 195
196 132
195 259
195 251
195 203
195 196
195 194
195 131
194 258
194 250
194 202
194 195
194 193
194 130
193 257
193 249
193 201
193 200
193 194
193 129
192 256
192 136
192 184
192 185
192 191
192 128
191 255
191 135
191 183
191 192
191 190
191 127
190 254
190 134
190 182
190 191
190 189
190 126
189 253
189 133
189 181
189 190
189 188
189 125
188 252
188 132
188 180
188 189
188 187
188 124
187 251
187 131
187 179
187 188
187 186
187 123
186 250
186 130
186 178
186 187
186 185
186 122
185 249
185 129
185 177
185 192
185 186
185 121
184 248
184 192
184 176
184 177
184 183
184 120
183 247
183 191
183 175
183 184
183 182
183 119
182 246
182 190
182 174
182 183
182 181
182 118
181 245
181 189
181 173
181 182
181 180
181 117
180 244
180 188
180 172
180 181
180 179
180 116
179 243
179 187
179 171
179 180
179 178
179 115
178 242
178 186
178 170
178 179
178 177
178 114
177 241
177 185
177 169
177 184
177 178
177 113
176 240
176 184
176 168
176 169
176 175
176 112
175 239
175 183
175 167
175 176
175 174
175 111
174 238
174 182
174 166
174 175
174 173
174 110
173 237
173 181
173 165
173 174
173 172
173 109
172 236
172 180
172 164
172 173
172 171
172 108
171 235
171 179
171 163
171 172
171 170
171 107
170 234
170 178
170 162
170 171
170 169
170 106
169 233
169 177
169 161
169 176
169 170
169 105
168 232
168 176
168 160
168 161
168 167
168 104
167 231
167 175
167 159
167 168
167 166
167 103
166 230
166 174
166 158
166 167
166 165
166 102
165 229
165 173
165 157
165 166
165 164
165 101
164 228
164 172
164 156
164 165
164 163
164 100
163 227
163 171
163 155
163 164
163 162
163 99
162 226
162 170
162 154
162 163
162 161
162 98
161 225
161 169
161 153
161 168
161 162
161 97
160 224
160 168
160 152
160 153
160 159
160 96
159 223
159 167
159 151
159 160
159 158
159 95
158 222
158 166
158 150
158 159
158 157
158 94
157 221
157 165
157 149
157 158
157 156
157 93
156 220
156 164
156 148
156 157
156 155
156 92
155 219
155 163
155 147
155 156
155 154
155 91
154 218
154 162
154 146
154 155
154 153
154 90
153 217
153 161
153 145
153 160
153 154
153 89
152 216
152 160
152 144
152 145
152 151
152 88
151 215
151 159
151 143
151 152
151 150
151 87
150 214
150 158
150 142
150 151
150 149
150 86
149 213
149 157
149 141
149 150
149 148
149 85
148 212
148 156
148 140
148 149
148 147
148 84
147 211
147 155
147 139
147 148
147 146
147 83
146 210
146 154
146 138
146 147
146 145
146 82
145 209
145 153
145 137
145 152
145 146
145 81
144 208
144 152
144 136
144 137
144 143
144 80
143 207
143 151
143 135
143 144
143 142
143 79
142 206
142 150
142 134
142 143
142 141
142 78
141 205
141 149
141 133
141 142
141 140
141 77
140 204
140 148
140 132
140 141
140 139
140 76
139 203
139 147
139 131
139 140
139 138
139 75
138 202
138 146
138 130
138 139
138 137
138 74
137 201
137 145
137 129
137 144
137 138
137 73
136 200
136 192
136 144
136 129
136 135
136 72
135 199
135 191
135 143
135 136
135 134
135 71
134 198
134 190
134 142
134 135
134 133
134 70
133 197
133 189
133 141
133 134
133 132
133 69
132 196
132 188
132 140
132 133
132 131
132 68
131 195
131 187
131 139
131 132
131 130
131 67
130 194
130 186
130 138
130 131
130 129
130 66
129 193
129 185
129 137
129 136
129 130
129 65
128 192
128 72
128 120
128 121
128 127
128 64
127 191
127 71
127 119
127 128
127 126
127 63
126 190
126 70
126 118
126 127
126 125
126 62
125 189
125 69
125 117
125 126
125 124
125 61
124 188
124 68
124 116
124 125
124 123
124 60
123 187
123 67
123 115
123 124
123 122
123 59
122 186
122 66
122 114
122 123
122 121
122 58
121 185
121 65
121 113
121 128
121 122
121 57
120 184
120 128
120 112
120 113
120 119
120 56
119 183
119 127
119 111
119 120
119 118
119 55
118 182
118 126
118 110
118 119
118 117
118 54
117 181
117 125
117 109
117 118
117 116
117 53
116 180
116 124
116 108
116 117
116 115
116 52
115 179
115 123
115 107
115 116
115 114
115 51
114 178
114 122
114 106
114 115
114 113
114 50
113 177
113 121
113 105
113 120
113 114
113 49
112 176
112 120
112 104
112 105
112 111
112 48
111 175
111 119
111 103
111 112
111 110
111 47
110 174
110 118
110 102
110 111
110 109
110 46
109 173
109 117
109 101
109 110
109 108
109 45
108 172
108 116
108 100
108 109
108 107
108 44
107 171
107 115
107 99
107 108
107 106
107 43
106 170
106 114
106 98
106 107
106 105
106 42
105 169
105 113
105 97
105 112
105 106
105 41
104 168
104 112
104 96
104 97
104 103
104 40
103 167
103 111
103 95
103 104
103 102
103 39
102 166
102 110
102 94
102 103
102 101
102 38
101 165
101 109
101 93
101 102
101 100
101 37
100 164
100 108
100 92
100 101
100 99
100 36
99 163
99 107
99 91
99 100
99 98
99 35
98 162
98 106
98 90
98 99
98 97
98 34
97 161
97 105
97 89
97 104
97 98
97 33
46 494
46 110
46 54
46 38
46 47
46 45
45 493
45 109
45 53
45 37
45 46
45 44
44 492
44 108
44 52
44 36
44 45
44 43
43 491
43 107
43 51
43 35
43 44
43 42
42 490
42 106
42 50
42 34
42 43
42 41
41 489
41 105
41 49
41 33
41 48
41 42
40 488
40 104
40 48
40 32
40 33
40 39
39 487
39 103
39 47
39 31
39 40
39 38
38 486
38 102
38 46
38 30
38 39
38 37
37 485
37 101
37 45
37 29
37 38
37 36
36 484
36 100
36 44
36 28
36 37
36 35
35 483
35 99
35 43
35 27
35 36
35 34
34 482
34 98
34 42
34 26
34 35
34 33
33 481
33 97
33 41
33 25
33 40
33 34
32 480
32 96
32 40
32 24
32 25
32 31
31 479
31 95
31 39
31 23
31 32
31 30
30 478
30 94
30 38
30 22
30 31
30 29
29 477
29 93
29 37
29 21
29 30
29 28
28 476
28 92
28 36
28 20
28 29
28 27
27 475
27 91
27 35
27 19
27 28
27 26
26 474
26 90
26 34
26 18
26 27
26 25
25 473
25 89
25 33
25 17
25 32
25 26
24 472
24 88
24 32
24 16
24 17
24 23
23 471
23 87
23 31
23 15
23 24
23 22
10 458
10 74
10 18
10 2
10 11
10 9
9 457
9 73
9 17
9 1
9 16
9 10
8 456
8 72
8 64
8 16
8 1
8 7
7 455
7 71
7 63
7 15
7 8
7 6
6 454
6 70
6 62
6 14
6 7
6 5
5 453
5 69
5 61
5 13
5 6
5 4
4 452
4 68
4 60
4 12
4 5
4 3
3 451
3 67
3 59
3 11
3 4
3 2
2 450
2 66
2 58
2 10
2 3
2 1
1 449
1 65
1 57
1 9
1 8
1 2
11 459
11 75
11 19
11 3
11 12
11 10
12 460
12 76
12 20
12 4
12 13
12 11
13 461
13 77
13 21
13 5
13 14
13 12
14 462
14 78
14 22
14 6
14 15
14 13
15 463
15 79
15 23
15 7
15 16
15 14
16 464
16 80
16 24
16 8
16 9
16 15
17 465
17 81
17 25
17 9
17 24
17 18
18 466
18 82
18 26
18 10
18 19
18 17
19 467
19 83
19 27
19 11
19 20
19 18
20 468
20 84
20 28
20 12
20 21
20 19
21 469
21 85
21 29
21 13
21 22
21 20
22 470
22 86
22 30
22 14
22 23
22 21
47 495
47 111
47 55
47 39
47 48
47 46
48 496
48 112
48 56
48 40
48 41
48 47
49 497
49 113
49 57
49 41
49 56
49 50
50 498
50 114
50 58
50 42
50 51
50 49
51 499
51 115
51 59
51 43
51 52
51 50
52 500
52 116
52 60
52 44
52 53
52 51
53 501
53 117
53 61
53 45
53 54
53 52
54 502
54 118
54 62
54 46
54 55
54 53
55 503
55 119
55 63
55 47
55 56
55 54
56 504
56 120
56 64
56 48
56 49
56 55
57 505
57 121
57 1
57 49
57 64
57 58
58 506
58 122
58 2
58 50
58 59
58 57
59 507
59 123
59 3
59 51
59 60
59 58
60 508
60 124
60 4
60 52
60 61
60 59
61 509
61 125
61 5
61 53
61 62
61 60
62 510
62 126
62 6
62 54
62 63
62 61
63 511
63 127
63 7
63 55
63 64
63 62
64 512
64 128
64 8
64 56
64 57
64 63
65 129
65 121
65 73
65 72
65 66
65 1
66 130
66 122
66 74
66 67
66 65
66 2
67 131
67 123
67 75
67 68
67 66
67 3
68 132
68 124
68 76
68 69
68 67
68 4
69 133
69 125
69 77
69 70
69 68
69 5
70 134
70 126
70 78
70 71
70 69
70 6
71 135
71 127
71 79
71 72
71 70
71 7
72 136
72 128
72 80
72 65
72 71
72 8
73 137
73 81
73 65
73 80
73 74
73 9
74 138
74 82
74 66
74 75
74 73
74 10
75 139
75 83
75 67
75 76
75 74
75 11
76 140
76 84
76 68
76 77
76 75
76 12
77 141
77 85
77 69
77 78
77 76
77 13
78 142
78 86
78 70
78 79
78 77
78 14
79 143
79 87
79 71
79 80
79 78
79 15
80 144
80 88
80 72
80 73
80 79
80 16
81 145
81 89
81 73
81 88
81 82
81 17
82 146
82 90
82 74
82 83
82 81
82 18
83 147
83 91
83 75
83 84
83 82
83 19
84 148
84 92
84 76
84 85
84 83
84 20
85 149
85 93
85 77
85 86
85 84
85 21
86 150
86 94
86 78
86 87
86 85
86 22
87 151
87 95
87 79
87 88
87 86
87 23
88 152
88 96
88 80
88 81
88 87
88 24
89 153
89 97
89 81
89 96
89 90
89 25
90 154
90 98
90 82
90 91
90 89
90 26
91 155
91 99
91 83
91 92
91 90
91 27
92 156
92 100
92 84
92 93
92 91
92 28
93 157
93 101
93 85
93 94
93 92
93 29
94 158
94 102
94 86
94 95
94 93
94 30
95 159
95 103
95 87
95 96
95 94
95 31
96 160
96 104
96 88
96 89
96 95
96 32
199 263
199 255
199 207
199 200
199 198
199 135
200 264
200 256
200 208
200 193
200 199
200 136
201 265
201 209
201 193
201 208
201 202
201 137
202 266
202 210
202 194
202 203
202 201
202 138
203 267
203 211
203 195
203 204
203 202
203 139
204 268
204 212
204 196
204 205
204 203
204 140
205 269
205 213
205 197
205 206
205 204
205 141
206 270
206 214
206 198
206 207
206 205
206 142
207 271
207 215
207 199
207 208
207 206
207 143
208 272
208 216
208 200
208 201
208 207
208 144
209 273
209 217
209 201
209 216
209 210
209 145
210 274
210 218
210 202
210 211
210 209
210 146
211 275
211 219
211 203
211 212
211 210
211 147
212 276
212 220
212 204
212 213
212 211
212 148
213 277
213 221
213 205
213 214
213 212
213 149
214 278
214 222
214 206
214 215
214 213
214 150
215 279
215 223
215 207
215 216
215 214
215 151
216 280
216 224
216 208
216 209
216 215
216 152
217 281
217 225
217 209
217 224
217 218
217 153
218 282
218 226
218 210
218 219
218 217
218 154
219 283
219 227
219 211
219 220
219 218
219 155
220 284
220 228
220 212
220 221
220 219
220 156
221 285
221 229
221 213
221 222
221 220
221 157
222 286
222 230
222 214
222 223
222 221
222 158
223 287
223 231
223 215
223 224
223 222
223 159
224 288
224 232
224 216
224 217
224 223
224 160
225 289
225 233
225 217
225 232
225 226
225 161
226 290
226 234
226 218
226 227
226 225
226 162
227 291
227 235
227 219
227 228
227 226
227 163
228 292
228 236
228 220
228 229
228 227
228 164
229 293
229 237
229 221
229 230
229 228
229 165
230 294
230 238
230 222
230 231
230 229
230 166
231 295
231 239
231 223
231 232
231 230
231 167
232 296
232 240
232 224
232 225
232 231
232 168
233 297
233 241
233 225
233 240
233 234
233 169
234 298
234 242
234 226
234 235
234 233
234 170
235 299
235 243
235 227
235 236
235 234
235 171
236 300
236 244
236 228
236 237
236 235
236 172
237 301
237 245
237 229
237 238
237 236
237 173
238 302
238 246
238 230
238 239
238 237
238 174
239 303
239 247
239 231
239 240
239 238
239 175
240 304
240 248
240 232
240 233
240 239
240 176
241 305
241 249
241 233
241 248
241 242
241 177
242 306
242 250
242 234
242 243
242 241
242 178
243 307
243 251
243 235
243 244
243 242
243 179
244 308
244 252
244 236
244 245
244 243
244 180
245 309
245 253
245 237
245 246
245 244
245 181
246 310
246 254
246 238
246 247
246 245
246 182
247 311
247 255
247 239
247 248
247 246
247 183
248 312
248 256
248 240
248 241
248 247
248 184
249 313
249 193
249 241
249 256
249 250
249 185
250 314
250 194
250 242
250 251
250 249
250 186
251 315
251 195
251 243
251 252
251 250
251 187
252 316
252 196
252 244
252 253
252 251
252 188
253 317
253 197
253 245
253 254
253 252
253 189
254 318
254 198
254 246
254 255
254 253
254 190
255 319
255 199
255 247
255 256
255 254
255 191
256 320
256 200
256 248
256 249
256 255
256 192
257 321
257 313
257 265
257 264
257 258
257 193
258 322
258 314
258 266
258 259
258 257
258 194
259 323
259 315
259 267
259 260
259 258
259 195
260 324
260 316
260 268
260 261
260 259
260 196
261 325
261 317
261 269
261 262
261 260
261 197
262 326
262 318
262 270
262 263
262 261
262 198
263 327
263 319
263 271
263 264
263 262
263 199
264 328
264 320
264 272
264 257
264 263
264 200
265 329
265 273
265 257
265 272
265 266
265 201
266 330
266 274
266 258
266 267
266 265
266 202
267 331
267 275
267 259
267 268
267 266
267 203
268 332
268 276
268 260
268 269
268 267
268 204
269 333
269 277
269 261
269 270
269 268
269 205
270 334
270 278
270 262
270 271
270 269
270 206
271 335
271 279
271 263
271 272
271 270
271 207
272 336
272 280
272 264
272 265
272 271
272 208
273 337
273 281
273 265
273 280
273 274
273 209
274 338
274 282
274 266
274 275
274 273
274 210
275 339
275 283
275 267
275 276
275 274
275 211
276 340
276 284
276 268
276 277
276 275
276 212
277 341
277 285
277 269
277 278
277 276
277 213
278 342
278 286
278 270
278 279
278 277
278 214
279 343
279 287
279 271
279 280
279 278
279 215
280 344
280 288
280 272
280 273
280 279
280 216
281 345
281 289
281 273
281 288
281 282
281 217
282 346
282 290
282 274
282 283
282 281
282 218
283 347
283 291
283 275
283 284
283 282
283 219
284 348
284 292
284 276
284 285
284 283
284 220
285 349
285 293
285 277
285 286
285 284
285 221
286 350
286 294
286 278
286 287
286 285
286 222
287 351
287 295
287 279
287 288
287 286
287 223
288 352
288 296
288 280
288 281
288 287
288 224
289 353
289 297
289 281
289 296
289 290
289 225
290 354
290 298
290 282
290 291
290 289
290 226
291 355
291 299
291 283
291 292
291 290
291 227
292 356
292 300
292 284
292 293
292 291
292 228
293 357
293 301
293 285
293 294
293 292
293 229
294 358
294 302
294 286
294 295
294 293
294 230
295 359
295 303
295 287
295 296
295 294
295 231
296 360
296 304
296 288
296 289
296 295
296 232
297 361
297 305
297 289
297 304
297 298
297 233
298 362
298 306
298 290
298 299
298 297
298 234
299 363
299 307
299 291
299 300
299 298
299 235
300 364
300 308
300 292
300 301
300 299
300 236
301 365
301 309
301 293
301 302
301 300
301 237
302 366
302 310
302 294
302 303
302 301
302 238
303 367
303 311
303 295
303 304
303 302
303 239
304 368
304 312
304 296
304 297
304 303
304 240
305 369
305 313
305 297
305 312
305 306
305 241
306 370
306 314
306 298
306 307
306 305
306 242
307 371
307 315
307 299
307 308
307 306
307 243
308 372
308 316
308 300
308 309
308 307
308 244
309 373
309 317
309 301
309 310
309 308
309 245
310 374
310 318
310 302
310 311
310 309
310 246
311 375
311 319
311 303
311 312
311 310
311 247
312 376
312 320
312 304
312 305
312 311
312 248
313 377
313 257
313 305
313 320
313 314
313 249
314 378
314 258
314 306
314 315
314 313
314 250
315 379
315 259
315 307
315 316
315 314
315 251
316 380
316 260
316 308
316 317
316 315
316 252
317 381
317 261
317 309
317 318
317 316
317 253
318 382
318 262
318 310
318 319
318 317
318 254
319 383
319 263
319 311
319 320
319 318
319 255
320 384
320 264
320 312
320 313
320 319
320 256
321 385
321 377
321 329
321 328
321 322
321 257
322 386
322 378
322 330
322 323
322 321
322 258
323 387
323 379
323 331
323 324
323 322
323 259
324 388
324 380
324 332
324 325
324 323
324 260
325 389
325 381
325 333
325 326
325 324
325 261
326 390
326 382
326 334
326 327
326 325
326 262
327 391
327 383
327 335
327 328
327 326
327 263
328 392
328 384
328 336
328 321
328 327
328 264
329 393
329 337
329 321
329 336
329 330
329 265
330 394
330 338
330 322
330 331
330 329
330 266
331 395
331 339
331 323
331 332
331 330
331 267
332 396
332 340
332 324
332 333
332 331
332 268
333 397
333 341
333 325
333 334
333 332
333 269
334 398
334 342
334 326
334 335
334 333
334 270
335 399
335 343
335 327
335 336
335 334
335 271
336 400
336 344
336 328
336 329
336 335
336 272
337 401
337 345
337 329
337 344
337 338
337 273
338 402
338 346
338 330
338 339
338 337
338 274
339 403
339 347
339 331
339 340
339 338
339 275
340 404
340 348
340 332
340 341
340 339
340 276
341 405
341 349
341 333
341 342
341 340
341 277
342 406
342 350
342 334
342 343
342 341
342 278
343 407
343 351
343 335
343 344
343 342
343 279
344 408
344 352
344 336
344 337
344 343
344 280
345 409
345 353
345 337
345 352
345 346
345 281
346 410
346 354
346 338
346 347
346 345
346 282
347 411
347 355
347 339
347 348
347 346
347 283
348 412
348 356
348 340
348 349
348 347
348 284
349 413
349 357
349 341
349 350
349 348
349 285
350 414
350 358
350 342
350 351
350 349
350 286
351 415
351 359
351 343
351 352
351 350
351 287
352 416
352 360
352 344
352 345
352 351
352 288
353 417
353 361
353 345
353 360
353 354
353 289
354 418
354 362
354 346
354 355
354 353
354 290
355 419
355 363
355 347
355 356
355 354
355 291
356 420
356 364
356 348
356 357
356 355
356 292
357 421
357 365
357 349
357 358
357 356
357 293
358 422
358 366
358 350
358 359
358 357
358 294
359 423
359 367
359 351
359 360
359 358
359 295
360 424
360 368
360 352
360 353
360 359
360 296
361 425
361 369
361 353
361 368
361 362
361 297
362 426
362 370
362 354
362 363
362 361
362 298
363 427
363 371
363 355
363 364
363 362
363 299
364 428
364 372
364 356
364 365
364 363
364 300
365 429
365 373
365 357
365 366
365 364
365 301
366 430
366 374
366 358
366 367
366 365
366 302
367 431
367 375
367 359
367 368
367 366
367 303
368 432
368 376
368 360
368 361
368 367
368 304
369 433
369 377
369 361
369 376
369 370
369 305
370 434
370 378
370 362
370 371
370 369
370 306
371 435
371 379
371 363
371 372
371 370
371 307
372 436
372 380
372 364
372 373
372 371
372 308
373 437
373 381
373 365
373 374
373 372
373 309
374 438
374 382
374 366
374 375
374 373
374 310
375 439
375 383
375 367
375 376
375 374
375 311
376 440
376 384
376 368
376 369
376 375
376 312
377 441
377 321
377 369
377 384
377 378
377 313
378 442
378 322
378 370
378 379
378 377
378 314
379 443
379 323
379 371
379 380
379 378
379 315
380 444
380 324
380 372
380 381
380 379
380 316
381 445
381 325
381 373
381 382
381 380
381 317
382 446
382 326
382 374
382 383
382 381
382 318
383 447
383 327
383 375
383 384
383 382
383 319
384 448
384 328
384 376
384 377
384 383
384 320
385 449
385 441
385 393
385 392
385 386
385 321
386 450
386 442
386 394
386 387
386 385
386 322
387 451
387 443
387 395
387 388
387 386
387 323
388 452
388 444
388 396
388 389
388 387
388 324
389 453
389 445
389 397
389 390
389 388
389 325
390 454
390 446
390 398
390 391
390 389
390 326
391 455
391 447
391 399
391 392
391 390
391 327
392 456
392 448
392 400
392 385
392 391
392 328
393 457
393 401
393 385
393 400
393 394
393 329
394 458
394 402
394 386
394 395
394 393
394 330
395 459
395 403
395 387
395 396
395 394
395 331
396 460
396 404
396 388
396 397
396 395
396 332
397 461
397 405
397 389
397 398
397 396
397 333
398 462
398 406
398 390
398 399
398 397
398 334
399 463
399 407
399 391
399 400
399 398
399 335
400 464
400 408
400 392
400 393
400 399
400 336
401 465
401 409
401 393
401 408
401 402
401 337
402 466
402 410
402 394
402 403
402 401
402 338
403 467
403 411
403 395
403 404
403 402
403 339
404 468
404 412
404 396
404 405
404 403
404 340
405 469
405 413
405 397
405 406
405 404
405 341
406 470
406 414
406 398
406 407
406 405
406 342
407 471
407 415
407 399
407 408
407 406
407 343
408 472
408 416
408 400
408 401
408 407
408 344
